computational_data/real_data/logs/wine_trial_015_lex.log
Welcome to the CBC MILP Solver 
Version: 2.10.12 
Build Date: Aug 20 2024 

command line - /opt/homebrew/bin/cbc computational_data/real_data/lp/wine_trial_015_lex.lp seconds 10.0 solve solu computational_data/real_data/solutions/wine_trial_015_lex.sol (default strategy 1)
 CoinLpIO::readLp(): Maximization problem reformulated as minimization
Coin0009I Switching back to maximization to get correct duals etc
seconds was changed from 1e+100 to 10
Continuous objective value is 6.58333 - 0.00 seconds
Cgl0003I 0 fixed, 0 tightened bounds, 91 strengthened rows, 0 substitutions
Cgl0003I 0 fixed, 0 tightened bounds, 82 strengthened rows, 0 substitutions
Cgl0003I 0 fixed, 0 tightened bounds, 72 strengthened rows, 0 substitutions
Cgl0003I 0 fixed, 0 tightened bounds, 56 strengthened rows, 0 substitutions
Cgl0003I 0 fixed, 0 tightened bounds, 41 strengthened rows, 0 substitutions
Cgl0003I 0 fixed, 0 tightened bounds, 22 strengthened rows, 0 substitutions
Cgl0003I 0 fixed, 0 tightened bounds, 10 strengthened rows, 0 substitutions
Cgl0003I 0 fixed, 0 tightened bounds, 6 strengthened rows, 0 substitutions
Cgl0003I 0 fixed, 0 tightened bounds, 4 strengthened rows, 0 substitutions
Cgl0004I processed model has 80 rows, 27 columns (27 integer (26 of which binary)) and 569 elements
Cbc0038I Initial state - 11 integers unsatisfied sum - 3.66667
Cbc0038I Pass   1: suminf.    0.00000 (0) obj. 6.47222 iterations 22
Cbc0038I Solution found of 6.47222
Cbc0038I Cleaned solution of 6.47222
Cbc0038I Before mini branch and bound, 14 integers at bound fixed and 0 continuous
Cbc0038I Full problem 80 rows 27 columns, reduced to 33 rows 12 columns
Cbc0038I Mini branch and bound did not improve solution (0.01 seconds)
Cbc0038I Round again with cutoff of 6.47408
Cbc0038I Reduced cost fixing fixed 3 variables on major pass 2
Cbc0038I Pass   2: suminf.    0.53593 (7) obj. 6.47408 iterations 17
Cbc0038I Pass   3: suminf.    0.40194 (5) obj. 6.47408 iterations 7
Cbc0038I Pass   4: suminf.    2.00000 (4) obj. 6.48611 iterations 16
Cbc0038I Pass   5: suminf.    0.40213 (5) obj. 6.47408 iterations 3
Cbc0038I Pass   6: suminf.    0.40213 (5) obj. 6.47408 iterations 10
Cbc0038I Pass   7: suminf.    2.00000 (4) obj. 6.48611 iterations 10
Cbc0038I Pass   8: suminf.    0.40194 (5) obj. 6.47408 iterations 5
Cbc0038I Pass   9: suminf.    0.40194 (5) obj. 6.47408 iterations 7
Cbc0038I Pass  10: suminf.    2.00000 (4) obj. 6.48611 iterations 17
Cbc0038I Pass  11: suminf.    2.26803 (9) obj. 6.47408 iterations 14
Cbc0038I Pass  12: suminf.    0.40194 (5) obj. 6.47408 iterations 12
Cbc0038I Pass  13: suminf.    0.40194 (5) obj. 6.47408 iterations 10
Cbc0038I Pass  14: suminf.    2.00000 (4) obj. 6.48611 iterations 25
Cbc0038I Pass  15: suminf.    3.13402 (10) obj. 6.47408 iterations 25
Cbc0038I Pass  16: suminf.    0.53593 (7) obj. 6.47408 iterations 13
Cbc0038I Pass  17: suminf.    0.40194 (5) obj. 6.47408 iterations 7
Cbc0038I Pass  18: suminf.    0.40194 (5) obj. 6.47408 iterations 0
Cbc0038I Pass  19: suminf.    0.40194 (5) obj. 6.47408 iterations 0
Cbc0038I Pass  20: suminf.    1.20635 (11) obj. 6.47408 iterations 6
Cbc0038I Pass  21: suminf.    0.53617 (7) obj. 6.47408 iterations 6
Cbc0038I Pass  22: suminf.    2.00000 (6) obj. 6.47917 iterations 16
Cbc0038I Pass  23: suminf.    0.40194 (5) obj. 6.47408 iterations 10
Cbc0038I Pass  24: suminf.    0.40194 (5) obj. 6.47408 iterations 4
Cbc0038I Pass  25: suminf.    2.00000 (4) obj. 6.48611 iterations 20
Cbc0038I Pass  26: suminf.    2.00000 (5) obj. 6.47408 iterations 7
Cbc0038I Pass  27: suminf.    2.00000 (5) obj. 6.47408 iterations 1
Cbc0038I Pass  28: suminf.    2.00000 (4) obj. 6.48611 iterations 16
Cbc0038I Pass  29: suminf.    0.40194 (5) obj. 6.47408 iterations 6
Cbc0038I Pass  30: suminf.    0.40194 (5) obj. 6.47408 iterations 6
Cbc0038I Pass  31: suminf.    2.40000 (8) obj. 6.47778 iterations 15
Cbc0038I No solution found this major pass
Cbc0038I Before mini branch and bound, 5 integers at bound fixed and 0 continuous
Cbc0038I Full problem 80 rows 27 columns, reduced to 69 rows 22 columns
Cbc0038I Mini branch and bound did not improve solution (0.01 seconds)
Cbc0038I After 0.01 seconds - Feasibility pump exiting with objective of 6.47222 - took 0.01 seconds
Cbc0012I Integer solution of 6.472223 found by feasibility pump after 0 iterations and 0 nodes (0.01 seconds)
Cbc0038I Full problem 80 rows 27 columns, reduced to 33 rows 12 columns
Cbc0031I 1 added rows had average density of 10
Cbc0013I At root node, 5 cuts changed objective from 6.4907403 to 6.472223 in 1 passes
Cbc0014I Cut generator 0 (Probing) - 0 row cuts average 0.0 elements, 0 column cuts (0 active)  in 0.000 seconds - new frequency is -100
Cbc0014I Cut generator 1 (Gomory) - 1 row cuts average 10.0 elements, 0 column cuts (0 active)  in 0.000 seconds - new frequency is 1
Cbc0014I Cut generator 2 (Knapsack) - 0 row cuts average 0.0 elements, 0 column cuts (0 active)  in 0.000 seconds - new frequency is -100
Cbc0014I Cut generator 3 (Clique) - 0 row cuts average 0.0 elements, 0 column cuts (0 active)  in 0.000 seconds - new frequency is -100
Cbc0014I Cut generator 4 (MixedIntegerRounding2) - 0 row cuts average 0.0 elements, 0 column cuts (0 active)  in 0.000 seconds - new frequency is -100
Cbc0014I Cut generator 5 (FlowCover) - 0 row cuts average 0.0 elements, 0 column cuts (0 active)  in 0.000 seconds - new frequency is -100
Cbc0014I Cut generator 6 (TwoMirCuts) - 3 row cuts average 15.3 elements, 0 column cuts (0 active)  in 0.000 seconds - new frequency is -100
Cbc0014I Cut generator 7 (ZeroHalf) - 1 row cuts average 7.0 elements, 0 column cuts (0 active)  in 0.000 seconds - new frequency is -100
Cbc0001I Search completed - best objective 6.472223000000001, took 0 iterations and 0 nodes (0.01 seconds)
Cbc0035I Maximum depth 0, 3 variables fixed on reduced cost
Cuts at root node changed objective from 6.49074 to 6.47222
Probing was tried 1 times and created 0 cuts of which 0 were active after adding rounds of cuts (0.000 seconds)
Gomory was tried 1 times and created 1 cuts of which 0 were active after adding rounds of cuts (0.000 seconds)
Knapsack was tried 1 times and created 0 cuts of which 0 were active after adding rounds of cuts (0.000 seconds)
Clique was tried 1 times and created 0 cuts of which 0 were active after adding rounds of cuts (0.000 seconds)
MixedIntegerRounding2 was tried 1 times and created 0 cuts of which 0 were active after adding rounds of cuts (0.000 seconds)
FlowCover was tried 1 times and created 0 cuts of which 0 were active after adding rounds of cuts (0.000 seconds)
TwoMirCuts was tried 1 times and created 3 cuts of which 0 were active after adding rounds of cuts (0.000 seconds)
ZeroHalf was tried 1 times and created 1 cuts of which 0 were active after adding rounds of cuts (0.000 seconds)

Result - Optimal solution found

Objective value:                6.47222300
Enumerated nodes:               0
Total iterations:               0
Time (CPU seconds):             0.01
Time (Wallclock seconds):       0.02

Total time (CPU seconds):       0.02   (Wallclock seconds):       0.02

